0
Node Left Objective IInf Best_Integer Best_Bound ItCnt Gap
0+ 0 nan nan 17080.7259 -1708.0726 nan 110.00%
0+ 0 nan nan -66.3573 -1708.0726 nan ---
0 0 -93.0816 11 -66.3573 -93.0816 79 40.27%
0+ 0 nan nan -85.7652 -93.0816 nan 8.53%
0 0 -91.4483 13 -85.7652 Cuts:8 97 6.63%
0 0 -91.1696 13 -85.7652 Cuts:8 114 6.30%
0 0 -90.9515 12 -85.7652 Cuts:11 126 6.05%
0 0 -90.7001 14 -85.7652 Cuts:13 136 5.75%
0 0 -90.6666 15 -85.7652 LiftProj:9 141 5.71%
0+ 0 nan nan -86.4772 -90.6666 nan 4.84%
0 0 -90.3807 16 -86.4772 LiftProj:9 152 4.51%
0 0 -90.1208 11 -86.4772 Cuts:10 162 4.21%
0 0 -90.0908 15 -86.4772 LiftProj:13 174 4.18%
0 0 -90.0651 18 -86.4772 LiftProj:7 179 4.15%
0 0 -89.9112 14 -86.4772 LiftProj:7 194 3.97%
0 0 -89.8749 14 -86.4772 LiftProj:9 202 3.93%
0 0 -89.8541 15 -86.4772 LiftProj:7 206 3.90%
0 0 -89.8510 19 -86.4772 LiftProj:10 214 3.90%
0 0 -89.7315 14 -86.4772 LiftProj:7 222 3.76%
0 0 -89.6741 16 -86.4772 LiftProj:11 233 3.70%
0 0 -89.6530 16 -86.4772 LiftProj:10 239 3.67%
0 0 -89.5274 14 -86.4772 LiftProj:7 254 3.53%
0 0 -89.5274 16 -86.4772 LiftProj:10 260 3.53%
0 2 -89.3869 11 -86.4772 -89.3869 260 3.36%
CPXPARAM_MIP_Cuts_FlowCovers-LiftProj:FlowCovers 0
CPXPARAM_MIP_Cuts_FlowCovers-LiftProj:LiftProj 10
1
Node Left Objective IInf Best_Integer Best_Bound ItCnt Gap
0+ 0 nan nan 17807.5550 -1780.7555 nan 110.00%
0+ 0 nan nan -246.6070 -1780.7555 nan 622.10%
0 0 -451.0443 22 -246.6070 -451.0443 124 82.90%
0+ 0 nan nan -437.4023 -451.0443 nan 3.12%
0 0 -450.5162 17 -437.4023 Cuts:13 144 3.00%
0+ 0 nan nan -441.7063 -450.5162 nan 1.99%
0 0 -450.3402 18 -441.7063 LiftProj:9 176 1.95%
0 0 -450.0915 18 -441.7063 Cuts:15 209 1.90%
0 0 -450.0673 22 -441.7063 Cuts:16 234 1.89%
0 0 -450.0340 27 -441.7063 Cuts:14 246 1.89%
0 0 -449.5214 30 -441.7063 Cuts:23 269 1.77%
0 0 -449.4283 32 -441.7063 Cuts:20 283 1.75%
0 0 -449.3842 31 -441.7063 Cuts:18 295 1.74%
0 0 -449.3308 31 -441.7063 Cuts:20 303 1.73%
0+ 0 nan nan -441.9446 -449.3308 nan 1.67%
0 0 -449.2604 33 -441.9446 Cuts:26 316 1.66%
0+ 0 nan nan -442.4250 -449.2604 nan 1.54%
0 0 -449.0321 30 -442.4250 Cuts:15 337 1.49%
0 0 -449.0154 31 -442.4250 Cuts:27 346 1.49%
0 0 -448.6947 30 -442.4250 LiftProj:15 361 1.42%
0 0 -448.6398 31 -442.4250 Cuts:24 376 1.40%
0+ 0 nan nan -444.6720 -448.6398 nan 0.89%
0 2 -448.4350 14 -444.6720 -448.3891 376 0.84%
CPXPARAM_MIP_Cuts_FlowCovers-LiftProj:FlowCovers 2
CPXPARAM_MIP_Cuts_FlowCovers-LiftProj:LiftProj 22
2
Node Left Objective IInf Best_Integer Best_Bound ItCnt Gap
0+ 0 nan nan 21992.9672 -2199.2967 nan 110.00%
0+ 0 nan nan -144.9985 -2199.2967 nan ---
0 0 cutoff -144.9985 -144.9985 77 0.00%
0 0 cutoff -144.9985 -144.9985 77 0.00% 0
CPXPARAM_MIP_Cuts_FlowCovers-LiftProj:FlowCovers 0
CPXPARAM_MIP_Cuts_FlowCovers-LiftProj:LiftProj 0
3
Node Left Objective IInf Best_Integer Best_Bound ItCnt Gap
0+ 0 nan nan 15130.5599 -1513.0560 nan 110.00%
0+ 0 nan nan -319.1991 -1513.0560 nan 374.02%
0 0 -373.2689 13 -319.1991 -373.2689 81 16.94%
0+ 0 nan nan -322.8337 -373.2689 nan 15.62%
0 0 -373.2689 11 -322.8337 LiftProj:4 99 15.62%
0 0 -373.2221 18 -322.8337 LiftProj:5 110 15.61%
0 0 -373.1701 17 -322.8337 LiftProj:4 115 15.59%
0 0 -373.1632 19 -322.8337 LiftProj:2 116 15.59%
0 0 -373.1600 18 -322.8337 LiftProj:2 120 15.59%
0+ 0 nan nan -371.0358 -373.1600 nan 0.57%
0 0 cutoff -371.0358 -373.1600 141 0.57% 0
CPXPARAM_MIP_Cuts_FlowCovers-LiftProj:FlowCovers 0
CPXPARAM_MIP_Cuts_FlowCovers-LiftProj:LiftProj 13
4
Node Left Objective IInf Best_Integer Best_Bound ItCnt Gap
0+ 0 nan nan 17229.3640 -1722.9364 nan 110.00%
0+ 0 nan nan -67.4145 -1722.9364 nan ---
0 0 -89.1646 11 -67.4145 -89.1646 97 32.26%
0 0 -88.7659 10 -67.4145 Cuts:12 105 31.67%
0+ 0 nan nan -85.3062 -88.7659 nan 4.06%
0 0 -88.5783 11 -85.3062 LiftProj:10 114 3.84%
0+ 0 nan nan -85.5988 -88.5783 nan 3.48%
0 0 -88.5022 12 -85.5988 Cuts:11 121 3.39%
0 0 -88.4823 11 -85.5988 Cuts:13 126 3.37%
0 0 -88.0143 11 -85.5988 LiftProj:10 142 2.82%
0 0 -87.9266 11 -85.5988 Cuts:13 149 2.72%
0 0 -87.8191 9 -85.5988 Cuts:9 158 2.59%
0 0 -87.6638 10 -85.5988 LiftProj:8 165 2.41%
0 0 -87.6189 10 -85.5988 LiftProj:8 170 2.36%
0 0 -87.5939 10 -85.5988 LiftProj:8 179 2.33%
0 0 -87.3147 11 -85.5988 LiftProj:6 189 2.00%
0 0 -87.2820 11 -85.5988 LiftProj:7 194 1.97%
0 0 -87.1080 10 -85.5988 LiftProj:4 206 1.76%
0 0 -87.0533 11 -85.5988 LiftProj:7 213 1.70%
0 0 -87.0181 9 -85.5988 LiftProj:5 219 1.66%
0 0 -86.9022 10 -85.5988 LiftProj:5 226 1.52%
0 0 -86.8883 11 -85.5988 LiftProj:6 230 1.51%
0 0 -86.8272 8 -85.5988 LiftProj:10 235 1.44%
0 0 -86.6321 8 -85.5988 LiftProj:4 244 1.21%
0 0 -86.5667 8 -85.5988 LiftProj:7 255 1.13%
0 0 -86.5472 8 -85.5988 LiftProj:5 260 1.11%
0 0 -86.5411 9 -85.5988 LiftProj:3 265 1.10%
0 2 -86.1847 2 -85.5988 -86.1034 265 0.59%
CPXPARAM_MIP_Cuts_FlowCovers-LiftProj:FlowCovers 0
CPXPARAM_MIP_Cuts_FlowCovers-LiftProj:LiftProj 17
5
Node Left Objective IInf Best_Integer Best_Bound ItCnt Gap
0+ 0 nan nan 19297.4075 -1929.7408 nan 110.00%
0+ 0 nan nan -216.7443 -1929.7408 nan 790.33%
0 0 -495.8139 18 -216.7443 -495.8139 104 128.76%
0+ 0 nan nan -360.6431 -495.8139 nan 37.48%
0 0 -495.6258 19 -360.6431 LiftProj:9 112 37.43%
0+ 0 nan nan -363.5780 -495.6258 nan 36.32%
0 0 -495.5653 23 -363.5780 Cuts:13 125 36.30%
0 0 -495.4286 28 -363.5780 LiftProj:15 140 36.26%
0 0 -495.2306 27 -363.5780 Cuts:15 156 36.21%
0 0 -494.8877 27 -363.5780 Cuts:17 174 36.12%
0 0 -494.6760 31 -363.5780 Cuts:18 190 36.06%
0 0 -494.1934 26 -363.5780 LiftProj:13 216 35.92%
0 0 -494.0018 30 -363.5780 LiftProj:16 234 35.87%
0 0 -493.7938 27 -363.5780 LiftProj:16 250 35.82%
0 0 -493.7361 31 -363.5780 LiftProj:17 261 35.80%
0 0 -493.5462 31 -363.5780 Cuts:14 272 35.75%
0 0 -493.3046 29 -363.5780 LiftProj:15 288 35.68%
0 0 -493.2301 30 -363.5780 Cuts:18 302 35.66%
0 0 -493.0876 31 -363.5780 LiftProj:15 314 35.62%
0 0 -492.9599 31 -363.5780 LiftProj:16 332 35.59%
0 0 -492.8190 33 -363.5780 LiftProj:15 348 35.55%
0 0 -492.6002 35 -363.5780 LiftProj:12 365 35.49%
0 0 -492.4282 33 -363.5780 LiftProj:15 378 35.44%
0 0 -492.4053 32 -363.5780 Cuts:15 391 35.43%
0 0 -492.3286 34 -363.5780 LiftProj:14 406 35.41%
0+ 0 nan nan -484.5282 -492.3286 nan 1.61%
0 2 -492.3286 34 -484.5282 -492.3244 406 1.61%
CPXPARAM_MIP_Cuts_FlowCovers-LiftProj:FlowCovers 0
CPXPARAM_MIP_Cuts_FlowCovers-LiftProj:LiftProj 32
6
Node Left Objective IInf Best_Integer Best_Bound ItCnt Gap
0+ 0 nan nan 17283.6857 -1728.3686 nan 110.00%
0+ 0 nan nan -89.3561 -1728.3686 nan ---
0 0 -92.8995 6 -89.3561 -92.8995 83 3.97%
0 0 -92.8995 2 -89.3561 LiftProj:3 88 3.97%
0+ 0 nan nan -92.7479 -92.8995 nan 0.16%
0 1 -92.8339 5 -92.7479 -92.8293 92 0.09%
CPXPARAM_MIP_Cuts_FlowCovers-LiftProj:FlowCovers 0
CPXPARAM_MIP_Cuts_FlowCovers-LiftProj:LiftProj 3
7
Node Left Objective IInf Best_Integer Best_Bound ItCnt Gap
0+ 0 nan nan 18737.7240 -1873.9213 nan 110.00%
0+ 0 nan nan -349.2878 -1873.9213 nan 436.50%
0 0 -476.7132 19 -349.2878 -476.7132 92 36.48%
0+ 0 nan nan -351.7851 -476.7132 nan 35.51%
0 0 -476.4243 19 -351.7851 Cuts:11 120 35.43%
0 0 -476.1124 22 -351.7851 Cuts:12 139 35.34%
0 0 -476.0441 22 -351.7851 Cuts:12 149 35.32%
0 0 -475.9500 26 -351.7851 Cuts:10 162 35.30%
0 0 -475.7504 25 -351.7851 Cuts:17 181 35.24%
0 0 -475.6808 24 -351.7851 Cuts:11 187 35.22%
0 0 -475.5700 26 -351.7851 Cuts:13 194 35.19%
0 0 -475.1331 22 -351.7851 LiftProj:5 217 35.06%
0 0 -475.0633 21 -351.7851 LiftProj:8 224 35.04%
0 0 -474.9155 21 -351.7851 LiftProj:11 237 35.00%
0 0 -474.6322 21 -351.7851 LiftProj:11 254 34.92%
0 0 -474.5801 21 -351.7851 LiftProj:11 261 34.91%
0 0 -474.3923 19 -351.7851 LiftProj:8 272 34.85%
0 0 -474.3342 22 -351.7851 LiftProj:11 280 34.84%
0+ 0 nan nan -470.1406 -474.3342 nan 0.89%
0 2 -474.3342 22 -470.1406 -474.3307 280 0.89%
CPXPARAM_MIP_Cuts_FlowCovers-LiftProj:FlowCovers 0
CPXPARAM_MIP_Cuts_FlowCovers-LiftProj:LiftProj 17
8
Node Left Objective IInf Best_Integer Best_Bound ItCnt Gap
0+ 0 nan nan 20324.0135 -2032.4014 nan 110.00%
0+ 0 nan nan -89.4132 -2032.4014 nan ---
0 0 -103.1383 11 -89.4132 -103.1383 78 15.35%
0 0 -102.8895 12 -89.4132 Cuts:10 85 15.07%
0+ 0 nan nan -100.8155 -102.8895 nan 2.06%
0 0 -102.7249 12 -100.8155 Cuts:7 94 1.89%
0+ 0 nan nan -102.0140 -102.7249 nan 0.70%
0 0 -102.6479 10 -102.0140 LiftProj:4 97 0.62%
0 0 -102.6068 11 -102.0140 LiftProj:6 103 0.58%
0 0 -102.5135 12 -102.0140 LiftProj:6 107 0.49%
0 0 -102.3597 8 -102.0140 LiftProj:1 115 0.34%
0 0 -102.1901 3 -102.0140 LiftProj:1 126 0.17%
0 0 cutoff -102.0140 -102.1901 133 0.17% 0
CPXPARAM_MIP_Cuts_FlowCovers-LiftProj:FlowCovers 0
CPXPARAM_MIP_Cuts_FlowCovers-LiftProj:LiftProj 2
9
Node Left Objective IInf Best_Integer Best_Bound ItCnt Gap
0+ 0 nan nan 19574.3912 -1957.4391 nan 110.00%
0+ 0 nan nan -340.7562 -1957.4391 nan 474.44%
0 0 -481.4397 15 -340.7562 -481.4397 75 41.29%
0+ 0 nan nan -474.2321 -481.4397 nan 1.52%
0 0 -481.0219 14 -474.2321 Cuts:13 88 1.43%
0+ 0 nan nan -474.5367 -481.0219 nan 1.37%
0 0 -480.9085 18 -474.5367 Cuts:15 102 1.34%
0 0 -479.7889 19 -474.5367 LiftProj:12 119 1.11%
0 0 -479.4054 20 -474.5367 LiftProj:13 127 1.03%
0 0 -479.3643 23 -474.5367 LiftProj:12 135 1.02%
0 0 -479.2646 22 -474.5367 Cuts:16 154 1.00%
0 0 -479.1530 23 -474.5367 Cuts:11 164 0.97%
0 0 -479.0890 25 -474.5367 LiftProj:10 170 0.96%
0 0 -478.9765 25 -474.5367 LiftProj:8 175 0.94%
0 0 -478.8909 26 -474.5367 LiftProj:11 187 0.92%
0 0 -478.8320 25 -474.5367 LiftProj:9 201 0.91%
0 0 -478.7527 25 -474.5367 Cuts:11 227 0.89%
0 0 -478.6808 24 -474.5367 Cuts:13 244 0.87%
0 0 -478.6782 26 -474.5367 LiftProj:15 253 0.87%
0 0 -478.6633 28 -474.5367 Cuts:11 271 0.87%
0+ 0 nan nan -475.6999 -478.6633 nan 0.62%
0 2 -478.6633 16 -475.6999 -478.6531 271 0.62%
CPXPARAM_MIP_Cuts_FlowCovers-LiftProj:FlowCovers 0
CPXPARAM_MIP_Cuts_FlowCovers-LiftProj:LiftProj 20
10
Node Left Objective IInf Best_Integer Best_Bound ItCnt Gap
0+ 0 nan nan 27187.3215 -2718.7321 nan 110.00%
0+ 0 nan nan 10.9576 -2718.7321 nan ---
0 0 -173.4759 5 10.9576 -173.4759 75 ---
0+ 0 nan nan 7.7729 -173.4759 nan ---
0+ 0 nan nan -171.3795 -173.4759 nan 1.22%
0 0 -173.4759 3 -171.3795 LiftProj:4 81 1.22%
0 0 -173.4759 8 -171.3795 LiftProj:3 92 1.22%
0 0 -173.4759 6 -171.3795 LiftProj:4 100 1.22%
0 2 -173.4759 3 -171.3795 -173.4759 100 1.22%
CPXPARAM_MIP_Cuts_FlowCovers-LiftProj:FlowCovers 0
CPXPARAM_MIP_Cuts_FlowCovers-LiftProj:LiftProj 9
11
Node Left Objective IInf Best_Integer Best_Bound ItCnt Gap
0+ 0 nan nan 22470.7077 -2247.0708 nan 110.00%
0+ 0 nan nan -339.2451 -2247.0708 nan 562.37%
0 0 -573.6242 10 -339.2451 -573.6242 79 69.09%
0+ 0 nan nan -570.2156 -573.6242 nan 0.60%
0 0 -573.6242 13 -570.2156 LiftProj:3 94 0.60%
0 0 -573.4090 17 -570.2156 LiftProj:10 116 0.56%
0 0 -573.2894 19 -570.2156 LiftProj:7 125 0.54%
0 0 -573.2755 19 -570.2156 LiftProj:7 131 0.54%
0+ 0 nan nan -570.3419 -573.2755 nan 0.51%
0 2 -572.9753 6 -570.3419 -572.8095 131 0.43%
CPXPARAM_MIP_Cuts_FlowCovers-LiftProj:FlowCovers 0
CPXPARAM_MIP_Cuts_FlowCovers-LiftProj:LiftProj 15
12
Node Left Objective IInf Best_Integer Best_Bound ItCnt Gap
0+ 0 nan nan 21290.0070 -2129.0007 nan 110.00%
0+ 0 nan nan -108.2542 -2129.0007 nan ---
0 0 -125.5769 9 -108.2542 -125.5769 93 16.00%
0+ 0 nan nan -118.3639 -125.5769 nan 6.09%
0 0 -124.8694 10 -118.3639 Cuts:8 108 5.50%
0+ 0 nan nan -118.7038 -124.8694 nan 5.19%
0 0 -124.7770 10 -118.7038 LiftProj:6 112 5.12%
0 0 -124.7303 12 -118.7038 LiftProj:6 115 5.08%
0 0 -124.5116 12 -118.7038 LiftProj:10 121 4.89%
0 0 -124.2165 10 -118.7038 LiftProj:8 139 4.64%
0 0 -124.1220 12 -118.7038 LiftProj:7 149 4.56%
0 0 -123.9518 12 -118.7038 Cuts:12 160 4.42%
0+ 0 nan nan -121.2111 -123.9518 nan 2.26%
0 0 -123.8682 12 -121.2111 LiftProj:9 166 2.19%
0 0 -123.7235 12 -121.2111 LiftProj:10 172 2.07%
0 0 -123.5695 13 -121.2111 LiftProj:10 180 1.95%
0 0 -123.5127 13 -121.2111 LiftProj:12 188 1.90%
0 0 -123.3145 11 -121.2111 LiftProj:8 200 1.74%
0 0 -123.2864 14 -121.2111 LiftProj:9 209 1.71%
0 0 -123.0666 14 -121.2111 LiftProj:7 216 1.53%
0 0 -123.0579 15 -121.2111 Cuts:11 219 1.52%
0 0 -122.9548 15 -121.2111 LiftProj:4 223 1.44%
0 0 -122.9532 17 -121.2111 LiftProj:12 232 1.44%
0 2 -122.7244 7 -121.2111 -122.6967 232 1.23%
CPXPARAM_MIP_Cuts_FlowCovers-LiftProj:FlowCovers 0
CPXPARAM_MIP_Cuts_FlowCovers-LiftProj:LiftProj 12
13
Node Left Objective IInf Best_Integer Best_Bound ItCnt Gap
0+ 0 nan nan 18711.1828 -1871.1183 nan 110.00%
0+ 0 nan nan -86.7463 -1871.1183 nan ---
0 0 -468.4244 16 -86.7463 -468.4244 90 439.99%
0+ 0 nan nan -462.1230 -468.4244 nan 1.36%
0 0 -468.2275 17 -462.1230 Cuts:12 98 1.32%
0 0 -468.1846 21 -462.1230 Cuts:15 111 1.31%
0 0 -467.6790 20 -462.1230 LiftProj:13 128 1.20%
0 0 -467.6676 24 -462.1230 LiftProj:15 144 1.20%
0 0 -467.5274 24 -462.1230 LiftProj:18 157 1.17%
0 0 -467.4954 25 -462.1230 Cuts:16 176 1.16%
0 0 -467.4894 24 -462.1230 Cuts:14 190 1.16%
0 2 -467.4894 22 -462.1230 -467.4814 190 1.16%
CPXPARAM_MIP_Cuts_FlowCovers-LiftProj:FlowCovers 0
CPXPARAM_MIP_Cuts_FlowCovers-LiftProj:LiftProj 15
14
Node Left Objective IInf Best_Integer Best_Bound ItCnt Gap
0+ 0 nan nan 22739.1838 -2273.9184 nan 110.00%
0+ 0 nan nan -144.2844 -2273.9184 nan ---
0 0 -146.9071 10 -144.2844 -146.9071 80 1.82%
0 0 -146.8581 6 -144.2844 Cuts:6 86 1.78%
0 0 -146.7992 10 -144.2844 Cuts:8 97 1.74%
0 0 -146.7805 16 -144.2844 Cuts:5 111 1.73%
0 0 -146.7506 13 -144.2844 LiftProj:5 126 1.71%
0+ 0 nan nan -145.9432 -146.7506 nan 0.55%
0 0 -146.7422 9 -145.9432 LiftProj:4 140 0.55%
0 0 -146.7406 9 -145.9432 LiftProj:2 143 0.55%
0 0 -146.7255 11 -145.9432 LiftProj:3 147 0.54%
0 0 -146.7255 14 -145.9432 LiftProj:3 152 0.54%
0 2 -146.7211 7 -145.9432 -146.7211 152 0.53%
CPXPARAM_MIP_Cuts_FlowCovers-LiftProj:FlowCovers 0
CPXPARAM_MIP_Cuts_FlowCovers-LiftProj:LiftProj 7
15
Node Left Objective IInf Best_Integer Best_Bound ItCnt Gap
0+ 0 nan nan 20293.1236 -2029.3124 nan 110.00%
0+ 0 nan nan -243.7454 -2029.3124 nan 732.55%
0 0 -518.7322 13 -243.7454 -518.7322 83 112.82%
0+ 0 nan nan -315.8010 -518.7322 nan 64.26%
0+ 0 nan nan -450.6273 -518.7322 nan 15.11%
0 0 -518.6655 20 -450.6273 LiftProj:12 105 15.10%
0 0 -518.6225 22 -450.6273 LiftProj:8 113 15.09%
0 0 -518.3455 21 -450.6273 LiftProj:11 134 15.03%
0 0 -518.2228 20 -450.6273 LiftProj:5 140 15.00%
0 0 -518.1599 21 -450.6273 LiftProj:6 149 14.99%
0 0 -518.1272 23 -450.6273 LiftProj:6 155 14.98%
0 0 -518.0878 23 -450.6273 LiftProj:6 160 14.97%
0 0 -518.0165 21 -450.6273 LiftProj:11 167 14.95%
0 0 -517.9782 19 -450.6273 LiftProj:11 178 14.95%
0 0 -517.9603 24 -450.6273 LiftProj:7 185 14.94%
0+ 0 nan nan -514.2581 -517.9603 nan 0.72%
0 2 -517.4235 8 -514.2581 -517.3600 185 0.60%
CPXPARAM_MIP_Cuts_FlowCovers-LiftProj:FlowCovers 0
CPXPARAM_MIP_Cuts_FlowCovers-LiftProj:LiftProj 20
16
Node Left Objective IInf Best_Integer Best_Bound ItCnt Gap
0+ 0 nan nan 21872.1954 -2187.2195 nan 110.00%
0+ 0 nan nan -112.2220 -2187.2195 nan ---
0 0 -126.4787 11 -112.2220 -126.4787 89 12.70%
0 0 -126.4231 14 -112.2220 LiftProj:9 104 12.65%
0 0 -126.2461 15 -112.2220 LiftProj:11 118 12.50%
0 0 -126.2455 15 -112.2220 LiftProj:9 125 12.50%
0 0 -126.1385 13 -112.2220 LiftProj:4 129 12.40%
0 0 -126.1385 15 -112.2220 LiftProj:9 137 12.40%
0+ 0 nan nan -120.6891 -126.1385 nan 4.52%
0+ 0 nan nan -124.1992 -126.1385 nan 1.56%
0 2 -126.1385 10 -124.1992 -126.0776 137 1.51%
CPXPARAM_MIP_Cuts_FlowCovers-LiftProj:FlowCovers 0
CPXPARAM_MIP_Cuts_FlowCovers-LiftProj:LiftProj 6
17
Node Left Objective IInf Best_Integer Best_Bound ItCnt Gap
0+ 0 nan nan 16639.6111 -1663.9611 nan 110.00%
0+ 0 nan nan -399.5270 -1663.9611 nan 316.48%
0 0 -404.1656 14 -399.5270 -404.1656 83 1.16%
0 0 -403.5814 13 -399.5270 LiftProj:6 99 1.01%
0 0 -403.5814 13 -399.5270 LiftProj:5 102 1.01%
0 0 -403.4994 15 -399.5270 LiftProj:9 122 0.99%
0 0 -403.2879 20 -399.5270 LiftProj:12 150 0.94%
0 0 -403.2479 21 -399.5270 LiftProj:15 164 0.93%
0 0 -403.0173 24 -399.5270 LiftProj:16 182 0.87%
0 0 -403.0079 24 -399.5270 LiftProj:13 188 0.87%
0 2 -403.0079 19 -399.5270 -402.9293 188 0.85%
CPXPARAM_MIP_Cuts_FlowCovers-LiftProj:FlowCovers 0
CPXPARAM_MIP_Cuts_FlowCovers-LiftProj:LiftProj 15
18
Node Left Objective IInf Best_Integer Best_Bound ItCnt Gap
0+ 0 nan nan 18821.9021 -1882.1902 nan 110.00%
0+ 0 nan nan -97.2991 -1882.1902 nan ---
0 0 -99.0172 8 -97.2991 -99.0172 77 1.77%
0 0 -99.0172 7 -97.2991 LiftProj:7 88 1.77%
0+ 0 nan nan -98.6205 -99.0172 nan 0.40%
0 0 -99.0165 9 -98.6205 LiftProj:3 94 0.40%
0 2 -99.0151 4 -98.6205 -98.9995 94 0.38%
CPXPARAM_MIP_Cuts_FlowCovers-LiftProj:FlowCovers 0
CPXPARAM_MIP_Cuts_FlowCovers-LiftProj:LiftProj 9
19
Node Left Objective IInf Best_Integer Best_Bound ItCnt Gap
0+ 0 nan nan 19012.1137 -1901.2740 nan 110.00%
0+ 0 nan nan -411.3325 -1901.2740 nan 362.22%
0 0 -474.7865 8 -411.3325 -474.7865 76 15.43%
0+ 0 nan nan -411.4107 -474.7865 nan 15.40%
0+ 0 nan nan -472.5175 -474.7865 nan 0.48%
0 0 -474.7865 8 -472.5175 LiftProj:2 84 0.48%
0 0 -474.7865 5 -472.5175 LiftProj:5 88 0.48%
0+ 0 nan nan -473.4153 -474.7865 nan 0.29%
0 0 -474.7865 5 -473.4153 LiftProj:2 91 0.29%
0+ 0 nan nan -474.7791 -474.7865 nan 0.00%
CPXPARAM_MIP_Cuts_FlowCovers-LiftProj:FlowCovers 0
CPXPARAM_MIP_Cuts_FlowCovers-LiftProj:LiftProj 7
20
Node Left Objective IInf Best_Integer Best_Bound ItCnt Gap
0+ 0 nan nan 15115.0246 -1511.5025 nan 110.00%
0+ 0 nan nan -66.4447 -1511.5025 nan ---
0 0 -90.2455 12 -66.4447 -90.2455 91 35.82%
0 0 -89.9330 10 -66.4447 Cuts:9 103 35.35%
0+ 0 nan nan -88.1244 -89.9330 nan 2.05%
0 0 -89.6424 14 -88.1244 Cuts:13 112 1.72%
0 0 -89.4745 12 -88.1244 Cuts:8 120 1.53%
0 0 -89.4003 12 -88.1244 Cuts:7 127 1.45%
0 0 -89.3196 11 -88.1244 LiftProj:5 136 1.36%
0 0 -89.2244 9 -88.1244 LiftProj:4 144 1.25%
0 0 -89.1466 10 -88.1244 Cuts:6 150 1.16%
0 0 -88.9318 8 -88.1244 LiftProj:6 157 0.92%
0 0 -88.8711 9 -88.1244 Cuts:10 166 0.85%
0 0 -88.5852 9 -88.1244 LiftProj:2 179 0.52%
0 0 cutoff -88.1244 201 0.00% 0 0
CPXPARAM_MIP_Cuts_FlowCovers-LiftProj:FlowCovers 0
CPXPARAM_MIP_Cuts_FlowCovers-LiftProj:LiftProj 8
21
Node Left Objective IInf Best_Integer Best_Bound ItCnt Gap
0+ 0 nan nan 15333.4248 -1533.3425 nan 110.00%
0+ 0 nan nan -221.9629 -1533.3425 nan 590.81%
0 0 -397.2126 26 -221.9629 -397.2126 110 78.95%
0+ 0 nan nan -235.8252 -397.2126 nan 68.44%
0 0 -396.2841 27 -235.8252 Cuts:7 117 68.04%
0+ 0 nan nan -240.6087 -396.2841 nan 64.70%
0 0 -395.7365 29 -240.6087 Cuts:15 125 64.47%
0 0 -395.3168 27 -240.6087 LiftProj:6 136 64.30%
0 0 -395.0250 29 -240.6087 Cuts:20 148 64.18%
0 0 -394.9298 30 -240.6087 Cuts:25 160 64.14%
0 0 -394.6749 32 -240.6087 Cuts:19 178 64.03%
0 0 -393.9063 32 -240.6087 Cuts:23 203 63.71%
0+ 0 nan nan -287.3368 -393.9063 nan 37.09%
0 0 -393.4465 32 -287.3368 Cuts:25 224 36.93%
0 0 -393.2225 31 -287.3368 Cuts:19 241 36.85%
0 0 -392.7428 32 -287.3368 Cuts:24 264 36.68%
0 0 -392.6216 32 -287.3368 Cuts:22 283 36.64%
0 0 -392.1881 32 -287.3368 LiftProj:19 308 36.49%
0 0 -392.1194 34 -287.3368 Cuts:29 323 36.47%
0 0 -392.0264 33 -287.3368 LiftProj:20 343 36.43%
0 0 -391.8725 34 -287.3368 Cuts:18 361 36.38%
0 0 -391.5893 35 -287.3368 LiftProj:26 389 36.28%
0 0 -391.4597 34 -287.3368 Cuts:17 411 36.24%
0 0 -391.3053 34 -287.3368 Cuts:19 433 36.18%
0 0 -391.2332 34 -287.3368 Cuts:19 450 36.16%
0 0 -390.9707 33 -287.3368 LiftProj:13 469 36.07%
0+ 0 nan nan -336.4258 -390.9707 nan 16.21%
0 0 -390.8455 36 -336.4258 Cuts:19 493 16.18%
0 0 -390.6895 35 -336.4258 Cuts:20 520 16.13%
0 0 -390.6354 35 -336.4258 LiftProj:14 539 16.11%
0+ 0 nan nan -384.1977 -390.6354 nan 1.68%
0+ 0 nan nan -384.3452 -390.6354 nan 1.64%
0 2 -390.6326 33 -384.3452 -390.6301 539 1.64%
CPXPARAM_MIP_Cuts_FlowCovers-LiftProj:FlowCovers 3
CPXPARAM_MIP_Cuts_FlowCovers-LiftProj:LiftProj 31
22
Node Left Objective IInf Best_Integer Best_Bound ItCnt Gap
0+ 0 nan nan 15579.5689 -1557.9569 nan 110.00%
0+ 0 nan nan -75.9857 -1557.9569 nan ---
0 0 -96.9770 4 -75.9857 -96.9770 80 27.63%
0+ 0 nan nan -96.9770 -96.9770 nan 0.00%
0 0 cutoff -96.9770 -96.9770 80 0.00% 0
CPXPARAM_MIP_Cuts_FlowCovers-LiftProj:FlowCovers 0
CPXPARAM_MIP_Cuts_FlowCovers-LiftProj:LiftProj 0
23
Node Left Objective IInf Best_Integer Best_Bound ItCnt Gap
0+ 0 nan nan 16097.8588 -1609.8715 nan 110.00%
0+ 0 nan nan -135.1706 -1609.8715 nan ---
0 0 -420.0439 21 -135.1706 -420.0439 92 210.75%
0+ 0 nan nan -205.3944 -420.0439 nan 104.51%
0+ 0 nan nan -308.1357 -420.0439 nan 36.32%
0 0 -419.0077 23 -308.1357 LiftProj:3 101 35.98%
0+ 0 nan nan -308.4428 -419.0077 nan 35.85%
0 0 -418.0150 22 -308.4428 Cuts:15 117 35.52%
0 0 -417.4205 25 -308.4428 Cuts:19 134 35.33%
0 0 -416.0312 22 -308.4428 Cuts:20 170 34.88%
0 0 -415.5080 25 -308.4428 Cuts:21 190 34.71%
0 0 -415.3621 25 -308.4428 Cuts:12 203 34.66%
0 0 -414.9187 26 -308.4428 Cuts:17 231 34.52%
0 0 -414.1422 28 -308.4428 Cuts:14 257 34.27%
0 0 -414.0183 25 -308.4428 Cuts:16 274 34.23%
0+ 0 nan nan -358.6380 -414.0183 nan 15.44%
0 0 -413.9883 26 -358.6380 Cuts:13 285 15.43%
0 0 -413.7894 25 -358.6380 Cuts:10 314 15.38%
0 0 -413.6921 29 -358.6380 LiftProj:12 332 15.35%
0 0 -413.6500 31 -358.6380 Cuts:14 344 15.34%
0+ 0 nan nan -408.7966 -413.6500 nan 1.19%
0 2 -413.6500 31 -408.7966 -413.6482 344 1.19%
CPXPARAM_MIP_Cuts_FlowCovers-LiftProj:FlowCovers 5
CPXPARAM_MIP_Cuts_FlowCovers-LiftProj:LiftProj 23
24
Node Left Objective IInf Best_Integer Best_Bound ItCnt Gap
0+ 0 nan nan 18436.4445 -1843.6444 nan 110.00%
0+ 0 nan nan -94.2493 -1843.6444 nan ---
0 0 -115.3546 13 -94.2493 -115.3546 85 22.39%
0+ 0 nan nan -112.0044 -115.3546 nan 2.99%
0 0 -114.8798 8 -112.0044 Cuts:9 92 2.57%
0 0 -114.8381 8 -112.0044 Cuts:6 94 2.53%
0 0 -114.4323 8 -112.0044 LiftProj:6 103 2.17%
0 0 -114.2397 7 -112.0044 LiftProj:5 114 2.00%
0 0 -114.1912 8 -112.0044 LiftProj:7 123 1.95%
0 0 -113.8538 9 -112.0044 LiftProj:5 139 1.65%
0 0 -113.5124 8 -112.0044 LiftProj:8 154 1.35%
0 0 -113.4555 9 -112.0044 LiftProj:6 162 1.30%
0 0 -113.3526 8 -112.0044 LiftProj:6 179 1.20%
0 0 -113.2789 9 -112.0044 LiftProj:7 186 1.14%
0 0 -113.1525 8 -112.0044 LiftProj:6 199 1.03%
0 0 -113.1155 9 -112.0044 LiftProj:7 204 0.99%
0 0 -113.0970 9 -112.0044 LiftProj:5 212 0.98%
0 0 -113.0547 9 -112.0044 LiftProj:4 222 0.94%
0 0 -113.0165 9 -112.0044 LiftProj:7 230 0.90%
0 0 -112.8974 9 -112.0044 LiftProj:6 244 0.80%
0 0 -112.8556 9 -112.0044 LiftProj:7 248 0.76%
0 0 -112.7002 9 -112.0044 LiftProj:4 261 0.62%
0 0 -112.6621 8 -112.0044 LiftProj:5 268 0.59%
0 0 -112.6519 8 -112.0044 LiftProj:6 274 0.58%
0 0 -112.6115 9 -112.0044 LiftProj:8 286 0.54%
0 0 -112.5452 7 -112.0044 LiftProj:6 302 0.48%
0 0 -112.5376 8 -112.0044 LiftProj:4 304 0.48%
0 2 -112.2669 2 -112.0044 -112.2526 304 0.22%
CPXPARAM_MIP_Cuts_FlowCovers-LiftProj:FlowCovers 0
CPXPARAM_MIP_Cuts_FlowCovers-LiftProj:LiftProj 13
25
Node Left Objective IInf Best_Integer Best_Bound ItCnt Gap
0+ 0 nan nan 18806.7169 -1880.6717 nan 110.00%
0+ 0 nan nan -288.0183 -1880.6717 nan 552.97%
0 0 -492.8236 25 -288.0183 -492.8236 100 71.11%
0+ 0 nan nan -362.9258 -492.8236 nan 35.79%
0 0 -490.6100 28 -362.9258 Cuts:12 115 35.18%
0 0 -490.3859 27 -362.9258 LiftProj:8 126 35.12%
0 0 -490.0375 28 -362.9258 Cuts:25 146 35.02%
0 0 -489.8390 31 -362.9258 LiftProj:15 161 34.97%
0 0 -489.2658 30 -362.9258 Cuts:17 188 34.81%
0 0 -488.9159 32 -362.9258 LiftProj:15 213 34.72%
0 0 -488.5581 31 -362.9258 LiftProj:19 229 34.62%
0 0 -488.4337 33 -362.9258 LiftProj:19 245 34.58%
0 0 -488.2476 32 -362.9258 LiftProj:14 276 34.53%
0 0 -487.9333 29 -362.9258 LiftProj:17 295 34.44%
0 0 -487.8703 32 -362.9258 LiftProj:25 305 34.43%
0 0 -487.7613 32 -362.9258 LiftProj:15 319 34.40%
0 0 -487.5741 33 -362.9258 Cuts:19 339 34.35%
0 0 -487.3084 33 -362.9258 LiftProj:16 361 34.27%
0 0 -487.1051 34 -362.9258 Cuts:27 385 34.22%
0 0 -487.0425 33 -362.9258 Cuts:17 394 34.20%
0 0 -486.9607 32 -362.9258 Cuts:16 411 34.18%
0+ 0 nan nan -476.9956 -486.9607 nan 2.09%
0+ 0 nan nan -478.9737 -486.9607 nan 1.67%
0 2 -486.9607 32 -478.9737 -486.9596 411 1.67%
CPXPARAM_MIP_Cuts_FlowCovers-LiftProj:FlowCovers 3
CPXPARAM_MIP_Cuts_FlowCovers-LiftProj:LiftProj 26
26
Node Left Objective IInf Best_Integer Best_Bound ItCnt Gap
0+ 0 nan nan 18555.8907 -1855.7233 nan 110.00%
0+ 0 nan nan -104.0034 -1855.7233 nan ---
0 0 -115.9815 5 -104.0034 -115.9815 67 11.52%
0+ 0 nan nan -115.9815 -115.9815 nan 0.00%
0 0 cutoff -115.9815 -115.9815 67 0.00% 0
CPXPARAM_MIP_Cuts_FlowCovers-LiftProj:FlowCovers 0
CPXPARAM_MIP_Cuts_FlowCovers-LiftProj:LiftProj 0
27
Node Left Objective IInf Best_Integer Best_Bound ItCnt Gap
0+ 0 nan nan 17101.2086 -1710.7893 nan 110.00%
0+ 0 nan nan -257.8104 -1710.7893 nan 563.58%
0 0 -441.6815 19 -257.8104 -441.6815 93 71.32%
0+ 0 nan nan -327.4274 -441.6815 nan 34.89%
0 0 -440.4343 20 -327.4274 LiftProj:5 105 34.51%
0+ 0 nan nan -327.5556 -440.4343 nan 34.46%
0 0 -440.2897 22 -327.5556 LiftProj:2 108 34.42%
0 0 -439.6981 21 -327.5556 LiftProj:3 118 34.24%
0 0 -439.2995 21 -327.5556 LiftProj:7 129 34.11%
0 0 -439.0784 22 -327.5556 Cuts:12 147 34.05%
0 0 -438.4155 25 -327.5556 LiftProj:10 173 33.84%
0 0 -438.3326 25 -327.5556 LiftProj:12 187 33.82%
0 0 -437.8897 28 -327.5556 Cuts:12 211 33.68%
0 0 -437.6058 25 -327.5556 LiftProj:10 228 33.60%
0 0 -437.4996 27 -327.5556 LiftProj:11 244 33.56%
0+ 0 nan nan -327.6314 -437.4996 nan 33.53%
0 0 -437.2512 25 -327.6314 LiftProj:11 263 33.46%
0 0 -436.9218 27 -327.6314 Cuts:14 281 33.36%
0 0 -436.8252 27 -327.6314 Cuts:13 294 33.33%
0 0 -436.7592 29 -327.6314 Cuts:13 308 33.31%
0 0 -436.6709 31 -327.6314 LiftProj:12 319 33.28%
0 0 -436.5186 30 -327.6314 Cuts:9 335 33.23%
0 0 -436.4376 29 -327.6314 Cuts:14 348 33.21%
0 0 -436.3508 31 -327.6314 Cuts:16 364 33.18%
0 0 -436.2740 29 -327.6314 Cuts:9 386 33.16%
0 0 -436.1865 26 -327.6314 Cuts:13 406 33.13%
0 0 -436.1556 27 -327.6314 LiftProj:9 416 33.12%
0+ 0 nan nan -432.7517 -436.1556 nan 0.79%
0+ 0 nan nan -433.6102 -436.1556 nan 0.59%
0 2 -436.1556 27 -433.6102 -436.1513 416 0.59%
CPXPARAM_MIP_Cuts_FlowCovers-LiftProj:FlowCovers 5
CPXPARAM_MIP_Cuts_FlowCovers-LiftProj:LiftProj 24
28
Node Left Objective IInf Best_Integer Best_Bound ItCnt Gap
0+ 0 nan nan 23195.9038 -2319.5904 nan 110.00%
0+ 0 nan nan -104.6712 -2319.5904 nan ---
0 0 -120.0533 11 -104.6712 -120.0533 77 14.70%
0 0 -119.6151 11 -104.6712 Cuts:7 88 14.28%
0 0 -119.2117 11 -104.6712 LiftProj:8 103 13.89%
0+ 0 nan nan -115.2003 -119.2117 nan 3.48%
0 0 -119.1013 9 -115.2003 LiftProj:7 112 3.39%
0+ 0 nan nan -117.2287 -119.1013 nan 1.60%
0 0 -118.8550 11 -117.2287 LiftProj:7 126 1.39%
0 0 -118.6450 10 -117.2287 LiftProj:5 140 1.21%
0 0 -118.6137 10 -117.2287 LiftProj:4 144 1.18%
0 0 -118.5839 10 -117.2287 LiftProj:3 148 1.16%
0 0 -118.4929 11 -117.2287 LiftProj:4 155 1.08%
0 0 -118.4650 11 -117.2287 LiftProj:11 166 1.05%
0 0 -118.3275 10 -117.2287 LiftProj:7 179 0.94%
0 0 -118.2544 10 -117.2287 LiftProj:5 185 0.87%
0 0 -118.2245 11 -117.2287 LiftProj:3 189 0.85%
0 0 -118.1934 11 -117.2287 LiftProj:6 193 0.82%
0 0 -118.1610 11 -117.2287 LiftProj:7 199 0.80%
0 0 -118.1405 11 -117.2287 LiftProj:5 205 0.78%
0 0 -118.0851 14 -117.2287 LiftProj:5 220 0.73%
0 0 -118.0609 13 -117.2287 LiftProj:11 231 0.71%
0 0 -118.0455 13 -117.2287 LiftProj:5 234 0.70%
0 0 -118.0218 7 -117.2287 LiftProj:3 239 0.68%
0 0 -118.0151 8 -117.2287 LiftProj:3 244 0.67%
0 2 -117.8087 5 -117.2287 -117.7664 244 0.46%
CPXPARAM_MIP_Cuts_FlowCovers-LiftProj:FlowCovers 0
CPXPARAM_MIP_Cuts_FlowCovers-LiftProj:LiftProj 14
29
Node Left Objective IInf Best_Integer Best_Bound ItCnt Gap
0+ 0 nan nan 18473.6572 -1847.3657 nan 110.00%
0+ 0 nan nan -427.6235 -1847.3657 nan 332.01%
0 0 -444.7353 17 -427.6235 -444.7353 96 4.00%
0 0 -444.4273 22 -427.6235 Cuts:11 119 3.93%
0 0 -444.2973 25 -427.6235 Cuts:13 130 3.90%
0 0 -443.7330 23 -427.6235 Cuts:12 146 3.77%
0 0 -443.6138 21 -427.6235 Cuts:9 159 3.74%
0 0 -443.5496 21 -427.6235 Cuts:10 165 3.72%
0 0 -443.0241 19 -427.6235 Cuts:12 178 3.60%
0 0 -442.9418 22 -427.6235 Cuts:13 189 3.58%
0 0 -442.9064 23 -427.6235 Cuts:8 196 3.57%
0 0 -442.8914 18 -427.6235 LiftProj:7 204 3.57%
0+ 0 nan nan -441.1471 -442.8914 nan 0.40%
0 2 -442.7959 4 -441.1471 -442.7493 204 0.36%
CPXPARAM_MIP_Cuts_FlowCovers-LiftProj:FlowCovers 0
CPXPARAM_MIP_Cuts_FlowCovers-LiftProj:LiftProj 7
30
Node Left Objective IInf Best_Integer Best_Bound ItCnt Gap
0+ 0 nan nan 20012.4297 -2001.2537 nan 110.00%
0+ 0 nan nan -82.7793 -2001.2537 nan ---
0 0 -93.4019 2 -82.7793 -93.4019 66 12.83%
0+ 0 nan nan -93.4019 -93.4019 nan 0.00%
CPXPARAM_MIP_Cuts_FlowCovers-LiftProj:FlowCovers 0
CPXPARAM_MIP_Cuts_FlowCovers-LiftProj:LiftProj 0
31
Node Left Objective IInf Best_Integer Best_Bound ItCnt Gap
0+ 0 nan nan 20469.5526 -2046.9553 nan 110.00%
0+ 0 nan nan -497.9458 -2046.9553 nan 311.08%
0 0 -506.7396 12 -497.9458 -506.7396 92 1.77%
0+ 0 nan nan -501.8232 -506.7396 nan 0.98%
0 0 -506.7396 3 -501.8232 LiftProj:1 99 0.98%
0+ 0 nan nan -506.6867 -506.7396 nan 0.01%
0 0 cutoff -506.6867 -506.7396 104 0.01% 0
CPXPARAM_MIP_Cuts_FlowCovers-LiftProj:FlowCovers 0
CPXPARAM_MIP_Cuts_FlowCovers-LiftProj:LiftProj 1
32
Node Left Objective IInf Best_Integer Best_Bound ItCnt Gap
0+ 0 nan nan 13911.0729 -1391.1073 nan 110.00%
0+ 0 nan nan -39.6136 -1391.1073 nan ---
0 0 -68.2827 6 -39.6136 -68.2827 77 72.37%
0+ 0 nan nan -65.9578 -68.2827 nan 3.52%
0 0 -66.0223 2 -65.9578 LiftProj:1 93 0.10%
0 0 cutoff -65.9578 96 0.00% 0 0
CPXPARAM_MIP_Cuts_FlowCovers-LiftProj:FlowCovers 0
CPXPARAM_MIP_Cuts_FlowCovers-LiftProj:LiftProj 1
33
Node Left Objective IInf Best_Integer Best_Bound ItCnt Gap
0+ 0 nan nan 16748.4512 -1674.8451 nan 110.00%
0+ 0 nan nan -180.4833 -1674.8451 nan 827.98%
0 0 -425.8102 14 -180.4833 -425.8102 120 135.93%
0+ 0 nan nan -362.2668 -425.8102 nan 17.54%
0 0 -425.5015 20 -362.2668 LiftProj:8 145 17.46%
0 0 -425.1104 22 -362.2668 Cuts:15 158 17.35%
0 0 -424.8479 24 -362.2668 Cuts:18 167 17.27%
0 0 -424.8242 27 -362.2668 Cuts:14 187 17.27%
0+ 0 nan nan -364.6391 -424.8242 nan 16.51%
0 0 -424.5718 28 -364.6391 Cuts:19 214 16.44%
0 0 -424.5142 31 -364.6391 Cuts:16 231 16.42%
0 0 -424.2337 30 -364.6391 Cuts:18 250 16.34%
0 0 -423.7432 30 -364.6391 LiftProj:14 272 16.21%
0 0 -423.5994 29 -364.6391 Cuts:23 280 16.17%
0 0 -423.4552 32 -364.6391 LiftProj:17 294 16.13%
0 0 -423.4348 33 -364.6391 LiftProj:17 302 16.12%
0 0 -423.2373 34 -364.6391 Cuts:16 327 16.07%
0 0 -423.1784 36 -364.6391 Cuts:17 344 16.05%
0 0 -423.0945 34 -364.6391 Cuts:17 366 16.03%
0 0 -422.9027 35 -364.6391 LiftProj:17 385 15.98%
0 0 -422.8592 35 -364.6391 LiftProj:17 395 15.97%
0+ 0 nan nan -417.2537 -422.8592 nan 1.34%
0 2 -422.8159 34 -417.2537 -422.8035 395 1.33%
CPXPARAM_MIP_Cuts_FlowCovers-LiftProj:FlowCovers 0
CPXPARAM_MIP_Cuts_FlowCovers-LiftProj:LiftProj 32
34
Node Left Objective IInf Best_Integer Best_Bound ItCnt Gap
0+ 0 nan nan 19055.0102 -1905.5010 nan 110.00%
0+ 0 nan nan -113.0294 -1905.5010 nan ---
0 0 -121.1718 5 -113.0294 -121.1718 75 7.20%
0+ 0 nan nan -117.8797 -121.1718 nan 2.79%
0 0 -121.1718 10 -117.8797 LiftProj:4 92 2.79%
0+ 0 nan nan -119.8794 -121.1718 nan 1.08%
0 0 -121.1652 10 -119.8794 Cuts:5 104 1.07%
0 0 -121.1652 8 -119.8794 Cuts:2 106 1.07%
0+ 0 nan nan -120.6252 -121.1652 nan 0.45%
0+ 0 nan nan -120.6252 -121.1652 nan 0.45%
0 0 -120.9707 3 -120.6252 -120.9707 171 0.29%
0+ 0 nan nan -120.8524 -120.9707 nan 0.10%
0 0 cutoff -120.8524 180 0.00% 0 0
CPXPARAM_MIP_Cuts_FlowCovers-LiftProj:FlowCovers 0
CPXPARAM_MIP_Cuts_FlowCovers-LiftProj:LiftProj 8
35
Node Left Objective IInf Best_Integer Best_Bound ItCnt Gap
0+ 0 nan nan 16780.9114 -1678.3241 nan 110.00%
0+ 0 nan nan -187.6361 -1678.3241 nan 794.46%
0 0 -420.9670 14 -187.6361 -420.9670 75 124.35%
0+ 0 nan nan -253.1346 -420.9670 nan 66.30%
0+ 0 nan nan -417.9530 -420.9670 nan 0.72%
0 0 -420.9670 11 -417.9530 LiftProj:3 93 0.72%
0 0 -420.9127 12 -417.9530 LiftProj:4 104 0.71%
0 0 -420.5668 15 -417.9530 LiftProj:4 111 0.63%
0 0 -420.5089 16 -417.9530 LiftProj:5 116 0.61%
0 0 -420.3390 14 -417.9530 LiftProj:4 123 0.57%
0 0 -420.2824 17 -417.9530 LiftProj:5 128 0.56%
0 0 -420.0401 16 -417.9530 LiftProj:7 138 0.50%
0 0 -419.9864 16 -417.9530 LiftProj:4 145 0.49%
0 0 -419.9552 17 -417.9530 LiftProj:8 152 0.48%
0 0 -419.4309 16 -417.9530 LiftProj:4 163 0.35%
0 0 -419.1887 16 -417.9530 LiftProj:1 182 0.30%
0 0 -419.1172 15 -417.9530 LiftProj:2 190 0.28%
0 0 -419.1172 17 -417.9530 LiftProj:3 195 0.28%
0+ 0 nan nan -417.9530 -419.1172 nan 0.28%
0+ 0 nan nan -417.9530 -419.1172 nan 0.28%
0 0 -418.0676 3 -417.9530 -418.0676 242 0.03%
0 0 cutoff -417.9530 246 0.00% 0 0
CPXPARAM_MIP_Cuts_FlowCovers-LiftProj:FlowCovers 0
CPXPARAM_MIP_Cuts_FlowCovers-LiftProj:LiftProj 15
36
Node Left Objective IInf Best_Integer Best_Bound ItCnt Gap
0+ 0 nan nan 22941.7465 -2294.1747 nan 110.00%
0+ 0 nan nan -123.5349 -2294.1747 nan ---
0 0 -146.5944 12 -123.5349 -146.5944 96 18.67%
0 0 -145.4117 7 -123.5349 LiftProj:4 108 17.71%
0+ 0 nan nan -136.2648 -145.4117 nan 6.71%
0 0 -144.7699 6 -136.2648 LiftProj:5 117 6.24%
0 0 -144.7099 7 -136.2648 LiftProj:4 124 6.20%
0+ 0 nan nan -139.5063 -144.7099 nan 3.73%
0 0 -144.4588 6 -139.5063 LiftProj:4 131 3.55%
0+ 0 nan nan -140.1787 -144.4588 nan 3.05%
0 0 -144.3512 7 -140.1787 LiftProj:6 138 2.98%
0 0 -144.1290 7 -140.1787 LiftProj:5 149 2.82%
0 0 -143.9852 7 -140.1787 LiftProj:5 160 2.72%
0 0 -143.5595 8 -140.1787 LiftProj:5 172 2.41%
0 0 -142.9800 9 -140.1787 LiftProj:3 186 2.00%
0 0 -142.7735 7 -140.1787 LiftProj:6 193 1.85%
0 0 -142.7343 8 -140.1787 LiftProj:6 201 1.82%
0 0 -142.6585 9 -140.1787 LiftProj:6 212 1.77%
0 0 -142.3055 6 -140.1787 LiftProj:6 222 1.52%
0 0 -142.1554 7 -140.1787 LiftProj:6 234 1.41%
0 0 -142.0323 6 -140.1787 LiftProj:10 244 1.32%
0 0 -141.9254 8 -140.1787 LiftProj:6 256 1.25%
0 0 -141.8482 9 -140.1787 LiftProj:5 263 1.19%
0 0 -141.7861 8 -140.1787 LiftProj:6 268 1.15%
0 0 -141.7238 16 -140.1787 LiftProj:4 281 1.10%
0 0 -141.6546 16 -140.1787 LiftProj:11 289 1.05%
0 0 -141.6423 14 -140.1787 LiftProj:6 298 1.04%
0 0 -141.5104 9 -140.1787 LiftProj:6 308 0.95%
0 0 -141.3393 8 -140.1787 LiftProj:4 318 0.83%
0 0 -141.3051 8 -140.1787 LiftProj:4 323 0.80%
0 0 -141.2616 8 -140.1787 LiftProj:5 332 0.77%
0 0 -141.2533 8 -140.1787 LiftProj:3 336 0.77%
0 2 -140.6937 4 -140.1787 -140.5516 336 0.27%
CPXPARAM_MIP_Cuts_FlowCovers-LiftProj:FlowCovers 0
CPXPARAM_MIP_Cuts_FlowCovers-LiftProj:LiftProj 16
37
Node Left Objective IInf Best_Integer Best_Bound ItCnt Gap
0+ 0 nan nan 22253.7712 -2225.3771 nan 110.00%
0+ 0 nan nan -192.7597 -2225.3771 nan ---
0 0 -583.6149 25 -192.7597 -583.6149 103 202.77%
0+ 0 nan nan -350.5396 -583.6149 nan 66.49%
0 0 -582.4825 25 -350.5396 LiftProj:4 115 66.17%
0+ 0 nan nan -355.1572 -582.4825 nan 64.01%
0 0 -580.8087 27 -355.1572 LiftProj:16 129 63.54%
0 0 -580.5331 26 -355.1572 LiftProj:16 140 63.46%
0 0 -580.3105 29 -355.1572 LiftProj:15 154 63.40%
0 0 -579.8626 28 -355.1572 LiftProj:19 175 63.27%
0 0 -579.5903 30 -355.1572 LiftProj:18 189 63.19%
0 0 -579.0669 30 -355.1572 LiftProj:21 205 63.05%
0 0 -578.9290 33 -355.1572 LiftProj:18 220 63.01%
0 0 -577.4469 33 -355.1572 LiftProj:16 244 62.59%
0 0 -576.9193 32 -355.1572 Cuts:26 267 62.44%
0 0 -576.5559 32 -355.1572 LiftProj:18 284 62.34%
0 0 -576.3827 33 -355.1572 LiftProj:20 293 62.29%
0 0 -576.1846 32 -355.1572 LiftProj:18 304 62.23%
0 0 -575.7426 32 -355.1572 LiftProj:19 318 62.11%
0+ 0 nan nan -355.5276 -575.7426 nan 61.94%
0 0 -575.6788 33 -355.5276 LiftProj:21 328 61.92%
0 0 -575.4763 34 -355.5276 LiftProj:17 343 61.87%
0 0 -575.1705 33 -355.5276 Cuts:19 366 61.78%
0 0 -574.9839 33 -355.5276 Cuts:20 386 61.73%
0 0 -574.7994 33 -355.5276 LiftProj:19 396 61.68%
0 0 -574.7776 34 -355.5276 LiftProj:19 404 61.67%
0+ 0 nan nan -564.3196 -574.7776 nan 1.85%
0 2 -574.7776 34 -564.3196 -574.7643 404 1.85%
CPXPARAM_MIP_Cuts_FlowCovers-LiftProj:FlowCovers 1
CPXPARAM_MIP_Cuts_FlowCovers-LiftProj:LiftProj 28
38
Node Left Objective IInf Best_Integer Best_Bound ItCnt Gap
0+ 0 nan nan 19121.8104 -1912.4176 nan 110.00%
0+ 0 nan nan -95.8861 -1912.4176 nan ---
0 0 -109.3384 7 -95.8861 -109.3384 75 14.03%
0+ 0 nan nan -109.3384 -109.3384 nan 0.00%
0 0 cutoff -109.3384 -109.3384 75 0.00% 0
CPXPARAM_MIP_Cuts_FlowCovers-LiftProj:FlowCovers 0
CPXPARAM_MIP_Cuts_FlowCovers-LiftProj:LiftProj 0
39
Node Left Objective IInf Best_Integer Best_Bound ItCnt Gap
0+ 0 nan nan 22617.4474 -2261.8298 nan 110.00%
0+ 0 nan nan -361.4650 -2261.8298 nan 525.74%
0 0 -588.7435 24 -361.4650 -588.7435 97 62.88%
0+ 0 nan nan -434.4180 -588.7435 nan 35.52%
0 0 -587.1914 20 -434.4180 LiftProj:5 115 35.17%
0 0 -586.9219 24 -434.4180 LiftProj:16 123 35.11%
0 0 -586.2825 22 -434.4180 Cuts:14 142 34.96%
0 0 -585.7411 27 -434.4180 LiftProj:14 161 34.83%
0 0 -585.3222 25 -434.4180 LiftProj:10 178 34.74%
0 0 -584.7435 27 -434.4180 LiftProj:18 195 34.60%
0 0 -583.3625 27 -434.4180 Cuts:20 220 34.29%
0 0 -582.8952 26 -434.4180 Cuts:23 247 34.18%
0 0 -582.4571 28 -434.4180 Cuts:19 268 34.08%
0 0 -582.2834 29 -434.4180 Cuts:21 283 34.04%
0 0 -581.5993 30 -434.4180 Cuts:21 313 33.88%
0 0 -581.4691 28 -434.4180 LiftProj:11 327 33.85%
0 0 -581.2906 29 -434.4180 LiftProj:9 343 33.81%
0 0 -581.2101 30 -434.4180 Cuts:13 357 33.79%
0 0 -581.1373 30 -434.4180 LiftProj:13 370 33.77%
0+ 0 nan nan -434.5619 -581.1373 nan 33.73%
0+ 0 nan nan -576.3586 -581.1373 nan 0.83%
0 2 -581.1373 30 -576.3586 -581.0996 370 0.82%
CPXPARAM_MIP_Cuts_FlowCovers-LiftProj:FlowCovers 7
CPXPARAM_MIP_Cuts_FlowCovers-LiftProj:LiftProj 20
